c Reduced graph for 3-FullIns_4 generated by Cyril Grelier
p edge 405 3524
e 1 2
e 1 3
e 1 4
e 1 5
e 1 106
e 1 107
e 1 108
e 1 109
e 1 110
e 1 203
e 1 204
e 1 205
e 1 206
e 1 207
e 1 208
e 1 209
e 1 210
e 1 211
e 1 212
e 1 213
e 1 214
e 1 215
e 1 216
e 1 217
e 1 242
e 1 243
e 1 244
e 1 245
e 1 246
e 1 335
e 1 336
e 1 337
e 1 338
e 1 339
e 1 352
e 1 353
e 1 354
e 1 355
e 1 356
e 1 357
e 1 358
e 1 359
e 1 360
e 1 361
e 1 362
e 1 363
e 1 364
e 1 365
e 1 366
e 1 367
e 1 368
e 1 369
e 1 370
e 1 371
e 1 372
e 1 373
e 1 374
e 1 375
e 1 380
e 1 381
e 1 382
e 1 383
e 1 384
e 1 385
e 1 386
e 1 387
e 1 388
e 1 389
e 1 390
e 1 391
e 1 392
e 1 393
e 1 394
e 1 395
e 1 396
e 1 397
e 1 398
e 1 399
e 1 400
e 1 401
e 1 402
e 1 403
e 1 404
e 1 405
e 2 3
e 2 4
e 2 5
e 2 6
e 2 7
e 2 8
e 2 9
e 2 10
e 2 26
e 2 27
e 2 28
e 2 29
e 2 30
e 2 31
e 2 32
e 2 33
e 2 34
e 2 35
e 2 36
e 2 37
e 2 38
e 2 39
e 2 40
e 2 86
e 2 87
e 2 88
e 2 89
e 2 90
e 2 111
e 2 112
e 2 113
e 2 114
e 2 115
e 2 131
e 2 132
e 2 133
e 2 134
e 2 135
e 2 136
e 2 137
e 2 138
e 2 139
e 2 140
e 2 141
e 2 142
e 2 143
e 2 144
e 2 145
e 2 146
e 2 147
e 2 148
e 2 149
e 2 150
e 2 151
e 2 152
e 2 153
e 2 154
e 2 247
e 2 248
e 2 249
e 2 250
e 2 251
e 2 252
e 2 253
e 2 254
e 2 279
e 2 280
e 2 281
e 2 282
e 2 283
e 2 284
e 2 285
e 2 286
e 2 287
e 2 288
e 2 289
e 2 290
e 2 291
e 2 292
e 2 340
e 2 341
e 2 342
e 2 343
e 3 4
e 3 5
e 3 11
e 3 12
e 3 13
e 3 14
e 3 15
e 3 41
e 3 42
e 3 43
e 3 44
e 3 45
e 3 46
e 3 47
e 3 48
e 3 49
e 3 50
e 3 51
e 3 52
e 3 53
e 3 54
e 3 55
e 3 91
e 3 92
e 3 93
e 3 94
e 3 95
e 3 116
e 3 117
e 3 118
e 3 119
e 3 120
e 3 155
e 3 156
e 3 157
e 3 158
e 3 159
e 3 160
e 3 161
e 3 162
e 3 163
e 3 164
e 3 165
e 3 166
e 3 167
e 3 168
e 3 169
e 3 170
e 3 171
e 3 172
e 3 173
e 3 174
e 3 175
e 3 176
e 3 177
e 3 178
e 3 255
e 3 256
e 3 257
e 3 258
e 3 259
e 3 260
e 3 261
e 3 262
e 3 293
e 3 294
e 3 295
e 3 296
e 3 297
e 3 298
e 3 299
e 3 300
e 3 301
e 3 302
e 3 303
e 3 304
e 3 305
e 3 306
e 3 344
e 3 345
e 3 346
e 3 347
e 4 5
e 4 16
e 4 17
e 4 18
e 4 19
e 4 20
e 4 56
e 4 57
e 4 58
e 4 59
e 4 60
e 4 61
e 4 62
e 4 63
e 4 64
e 4 65
e 4 66
e 4 67
e 4 68
e 4 69
e 4 70
e 4 96
e 4 97
e 4 98
e 4 99
e 4 100
e 4 121
e 4 122
e 4 123
e 4 124
e 4 125
e 4 179
e 4 180
e 4 181
e 4 182
e 4 183
e 4 184
e 4 185
e 4 186
e 4 187
e 4 188
e 4 189
e 4 190
e 4 191
e 4 192
e 4 193
e 4 194
e 4 195
e 4 196
e 4 197
e 4 198
e 4 199
e 4 200
e 4 201
e 4 202
e 4 263
e 4 264
e 4 265
e 4 266
e 4 267
e 4 268
e 4 269
e 4 270
e 4 307
e 4 308
e 4 309
e 4 310
e 4 311
e 4 312
e 4 313
e 4 314
e 4 315
e 4 316
e 4 317
e 4 318
e 4 319
e 4 320
e 4 348
e 4 349
e 4 350
e 4 351
e 5 106
e 5 107
e 5 108
e 5 109
e 5 110
e 5 203
e 5 204
e 5 205
e 5 206
e 5 207
e 5 208
e 5 209
e 5 210
e 5 211
e 5 212
e 5 213
e 5 214
e 5 215
e 5 216
e 5 217
e 5 242
e 5 243
e 5 244
e 5 245
e 5 246
e 5 335
e 5 336
e 5 337
e 5 338
e 5 339
e 5 352
e 5 353
e 5 354
e 5 355
e 5 356
e 5 357
e 5 358
e 5 359
e 5 360
e 5 361
e 5 362
e 5 363
e 5 364
e 5 365
e 5 366
e 5 367
e 5 368
e 5 369
e 5 370
e 5 371
e 5 372
e 5 373
e 5 374
e 5 375
e 5 380
e 5 381
e 5 382
e 5 383
e 5 384
e 5 385
e 5 386
e 5 387
e 5 388
e 5 389
e 5 390
e 5 391
e 5 392
e 5 393
e 5 394
e 5 395
e 5 396
e 5 397
e 5 398
e 5 399
e 5 400
e 5 401
e 5 402
e 5 403
e 5 404
e 5 405
e 6 12
e 6 13
e 6 14
e 6 15
e 6 22
e 6 23
e 6 24
e 6 25
e 6 116
e 6 117
e 6 118
e 6 119
e 6 120
e 6 126
e 6 127
e 6 128
e 6 129
e 6 130
e 6 299
e 6 300
e 6 301
e 6 302
e 6 303
e 6 304
e 6 305
e 6 306
e 6 327
e 6 328
e 6 329
e 6 330
e 6 331
e 6 332
e 6 333
e 6 334
e 6 346
e 6 347
e 6 378
e 6 379
e 7 11
e 7 13
e 7 14
e 7 15
e 7 21
e 7 23
e 7 24
e 7 25
e 7 41
e 7 42
e 7 43
e 7 44
e 7 45
e 7 71
e 7 72
e 7 73
e 7 74
e 7 75
e 7 155
e 7 156
e 7 157
e 7 158
e 7 159
e 7 160
e 7 161
e 7 162
e 7 218
e 7 219
e 7 220
e 7 221
e 7 222
e 7 223
e 7 224
e 7 225
e 7 293
e 7 294
e 7 321
e 7 322
e 8 11
e 8 12
e 8 14
e 8 15
e 8 21
e 8 22
e 8 24
e 8 25
e 8 46
e 8 47
e 8 48
e 8 49
e 8 50
e 8 76
e 8 77
e 8 78
e 8 79
e 8 80
e 8 163
e 8 164
e 8 165
e 8 166
e 8 167
e 8 168
e 8 169
e 8 170
e 8 226
e 8 227
e 8 228
e 8 229
e 8 230
e 8 231
e 8 232
e 8 233
e 8 295
e 8 296
e 8 323
e 8 324
e 9 11
e 9 12
e 9 13
e 9 15
e 9 21
e 9 22
e 9 23
e 9 25
e 9 51
e 9 52
e 9 53
e 9 54
e 9 55
e 9 81
e 9 82
e 9 83
e 9 84
e 9 85
e 9 171
e 9 172
e 9 173
e 9 174
e 9 175
e 9 176
e 9 177
e 9 178
e 9 234
e 9 235
e 9 236
e 9 237
e 9 238
e 9 239
e 9 240
e 9 241
e 9 297
e 9 298
e 9 325
e 9 326
e 10 11
e 10 12
e 10 13
e 10 14
e 10 21
e 10 22
e 10 23
e 10 24
e 10 116
e 10 117
e 10 118
e 10 119
e 10 120
e 10 126
e 10 127
e 10 128
e 10 129
e 10 130
e 10 299
e 10 300
e 10 301
e 10 302
e 10 303
e 10 304
e 10 305
e 10 306
e 10 327
e 10 328
e 10 329
e 10 330
e 10 331
e 10 332
e 10 333
e 10 334
e 10 346
e 10 347
e 10 378
e 10 379
e 11 17
e 11 18
e 11 19
e 11 20
e 11 111
e 11 112
e 11 113
e 11 114
e 11 115
e 11 121
e 11 122
e 11 123
e 11 124
e 11 125
e 11 285
e 11 286
e 11 287
e 11 288
e 11 289
e 11 290
e 11 291
e 11 292
e 11 313
e 11 314
e 11 315
e 11 316
e 11 317
e 11 318
e 11 319
e 11 320
e 11 342
e 11 343
e 11 350
e 11 351
e 12 16
e 12 18
e 12 19
e 12 20
e 12 26
e 12 27
e 12 28
e 12 29
e 12 30
e 12 56
e 12 57
e 12 58
e 12 59
e 12 60
e 12 131
e 12 132
e 12 133
e 12 134
e 12 135
e 12 136
e 12 137
e 12 138
e 12 179
e 12 180
e 12 181
e 12 182
e 12 183
e 12 184
e 12 185
e 12 186
e 12 279
e 12 280
e 12 307
e 12 308
e 13 16
e 13 17
e 13 19
e 13 20
e 13 31
e 13 32
e 13 33
e 13 34
e 13 35
e 13 61
e 13 62
e 13 63
e 13 64
e 13 65
e 13 139
e 13 140
e 13 141
e 13 142
e 13 143
e 13 144
e 13 145
e 13 146
e 13 187
e 13 188
e 13 189
e 13 190
e 13 191
e 13 192
e 13 193
e 13 194
e 13 281
e 13 282
e 13 309
e 13 310
e 14 16
e 14 17
e 14 18
e 14 20
e 14 36
e 14 37
e 14 38
e 14 39
e 14 40
e 14 66
e 14 67
e 14 68
e 14 69
e 14 70
e 14 147
e 14 148
e 14 149
e 14 150
e 14 151
e 14 152
e 14 153
e 14 154
e 14 195
e 14 196
e 14 197
e 14 198
e 14 199
e 14 200
e 14 201
e 14 202
e 14 283
e 14 284
e 14 311
e 14 312
e 15 16
e 15 17
e 15 18
e 15 19
e 15 111
e 15 112
e 15 113
e 15 114
e 15 115
e 15 121
e 15 122
e 15 123
e 15 124
e 15 125
e 15 285
e 15 286
e 15 287
e 15 288
e 15 289
e 15 290
e 15 291
e 15 292
e 15 313
e 15 314
e 15 315
e 15 316
e 15 317
e 15 318
e 15 319
e 15 320
e 15 342
e 15 343
e 15 350
e 15 351
e 16 107
e 16 108
e 16 109
e 16 110
e 16 116
e 16 117
e 16 118
e 16 119
e 16 120
e 16 299
e 16 300
e 16 301
e 16 302
e 16 303
e 16 304
e 16 305
e 16 306
e 16 335
e 16 336
e 16 337
e 16 338
e 16 339
e 16 346
e 16 347
e 16 394
e 16 395
e 16 396
e 16 397
e 16 398
e 16 399
e 16 400
e 16 401
e 16 404
e 16 405
e 17 41
e 17 42
e 17 43
e 17 44
e 17 45
e 17 106
e 17 108
e 17 109
e 17 110
e 17 155
e 17 156
e 17 157
e 17 158
e 17 159
e 17 160
e 17 161
e 17 162
e 17 203
e 17 204
e 17 205
e 17 206
e 17 207
e 17 293
e 17 294
e 17 352
e 17 353
e 17 354
e 17 355
e 17 356
e 17 357
e 17 358
e 17 359
e 17 388
e 17 389
e 18 46
e 18 47
e 18 48
e 18 49
e 18 50
e 18 106
e 18 107
e 18 109
e 18 110
e 18 163
e 18 164
e 18 165
e 18 166
e 18 167
e 18 168
e 18 169
e 18 170
e 18 208
e 18 209
e 18 210
e 18 211
e 18 212
e 18 295
e 18 296
e 18 360
e 18 361
e 18 362
e 18 363
e 18 364
e 18 365
e 18 366
e 18 367
e 18 390
e 18 391
e 19 51
e 19 52
e 19 53
e 19 54
e 19 55
e 19 106
e 19 107
e 19 108
e 19 110
e 19 171
e 19 172
e 19 173
e 19 174
e 19 175
e 19 176
e 19 177
e 19 178
e 19 213
e 19 214
e 19 215
e 19 216
e 19 217
e 19 297
e 19 298
e 19 368
e 19 369
e 19 370
e 19 371
e 19 372
e 19 373
e 19 374
e 19 375
e 19 392
e 19 393
e 20 106
e 20 107
e 20 108
e 20 109
e 20 116
e 20 117
e 20 118
e 20 119
e 20 120
e 20 299
e 20 300
e 20 301
e 20 302
e 20 303
e 20 304
e 20 305
e 20 306
e 20 335
e 20 336
e 20 337
e 20 338
e 20 339
e 20 346
e 20 347
e 20 394
e 20 395
e 20 396
e 20 397
e 20 398
e 20 399
e 20 400
e 20 401
e 20 404
e 20 405
e 21 22
e 21 23
e 21 24
e 21 25
e 21 111
e 21 112
e 21 113
e 21 114
e 21 115
e 21 126
e 21 127
e 21 128
e 21 129
e 21 130
e 21 285
e 21 286
e 21 287
e 21 288
e 21 289
e 21 290
e 21 291
e 21 292
e 21 327
e 21 328
e 21 329
e 21 330
e 21 331
e 21 332
e 21 333
e 21 334
e 21 342
e 21 343
e 21 378
e 21 379
e 22 23
e 22 24
e 22 25
e 22 26
e 22 27
e 22 28
e 22 29
e 22 30
e 22 71
e 22 72
e 22 73
e 22 74
e 22 75
e 22 131
e 22 132
e 22 133
e 22 134
e 22 135
e 22 136
e 22 137
e 22 138
e 22 218
e 22 219
e 22 220
e 22 221
e 22 222
e 22 223
e 22 224
e 22 225
e 22 279
e 22 280
e 22 321
e 22 322
e 23 24
e 23 25
e 23 31
e 23 32
e 23 33
e 23 34
e 23 35
e 23 76
e 23 77
e 23 78
e 23 79
e 23 80
e 23 139
e 23 140
e 23 141
e 23 142
e 23 143
e 23 144
e 23 145
e 23 146
e 23 226
e 23 227
e 23 228
e 23 229
e 23 230
e 23 231
e 23 232
e 23 233
e 23 281
e 23 282
e 23 323
e 23 324
e 24 25
e 24 36
e 24 37
e 24 38
e 24 39
e 24 40
e 24 81
e 24 82
e 24 83
e 24 84
e 24 85
e 24 147
e 24 148
e 24 149
e 24 150
e 24 151
e 24 152
e 24 153
e 24 154
e 24 234
e 24 235
e 24 236
e 24 237
e 24 238
e 24 239
e 24 240
e 24 241
e 24 283
e 24 284
e 24 325
e 24 326
e 25 111
e 25 112
e 25 113
e 25 114
e 25 115
e 25 126
e 25 127
e 25 128
e 25 129
e 25 130
e 25 285
e 25 286
e 25 287
e 25 288
e 25 289
e 25 290
e 25 291
e 25 292
e 25 327
e 25 328
e 25 329
e 25 330
e 25 331
e 25 332
e 25 333
e 25 334
e 25 342
e 25 343
e 25 378
e 25 379
e 26 47
e 26 48
e 26 49
e 26 50
e 26 77
e 26 78
e 26 79
e 26 80
e 26 92
e 26 93
e 26 94
e 26 95
e 26 102
e 26 103
e 26 104
e 26 105
e 26 169
e 26 170
e 26 232
e 26 233
e 26 261
e 26 262
e 26 277
e 26 278
e 27 46
e 27 48
e 27 49
e 27 50
e 27 76
e 27 78
e 27 79
e 27 80
e 27 91
e 27 93
e 27 94
e 27 95
e 27 101
e 27 103
e 27 104
e 27 105
e 27 163
e 27 164
e 27 226
e 27 227
e 27 255
e 27 256
e 27 271
e 27 272
e 28 46
e 28 47
e 28 49
e 28 50
e 28 76
e 28 77
e 28 79
e 28 80
e 28 91
e 28 92
e 28 94
e 28 95
e 28 101
e 28 102
e 28 104
e 28 105
e 28 165
e 28 166
e 28 228
e 28 229
e 28 257
e 28 258
e 28 273
e 28 274
e 29 46
e 29 47
e 29 48
e 29 50
e 29 76
e 29 77
e 29 78
e 29 80
e 29 91
e 29 92
e 29 93
e 29 95
e 29 101
e 29 102
e 29 103
e 29 105
e 29 167
e 29 168
e 29 230
e 29 231
e 29 259
e 29 260
e 29 275
e 29 276
e 30 46
e 30 47
e 30 48
e 30 49
e 30 76
e 30 77
e 30 78
e 30 79
e 30 91
e 30 92
e 30 93
e 30 94
e 30 101
e 30 102
e 30 103
e 30 104
e 30 169
e 30 170
e 30 232
e 30 233
e 30 261
e 30 262
e 30 277
e 30 278
e 31 42
e 31 43
e 31 44
e 31 45
e 31 52
e 31 53
e 31 54
e 31 55
e 31 72
e 31 73
e 31 74
e 31 75
e 31 82
e 31 83
e 31 84
e 31 85
e 31 161
e 31 162
e 31 177
e 31 178
e 31 224
e 31 225
e 31 240
e 31 241
e 32 41
e 32 43
e 32 44
e 32 45
e 32 51
e 32 53
e 32 54
e 32 55
e 32 71
e 32 73
e 32 74
e 32 75
e 32 81
e 32 83
e 32 84
e 32 85
e 32 155
e 32 156
e 32 171
e 32 172
e 32 218
e 32 219
e 32 234
e 32 235
e 33 41
e 33 42
e 33 44
e 33 45
e 33 51
e 33 52
e 33 54
e 33 55
e 33 71
e 33 72
e 33 74
e 33 75
e 33 81
e 33 82
e 33 84
e 33 85
e 33 157
e 33 158
e 33 173
e 33 174
e 33 220
e 33 221
e 33 236
e 33 237
e 34 41
e 34 42
e 34 43
e 34 45
e 34 51
e 34 52
e 34 53
e 34 55
e 34 71
e 34 72
e 34 73
e 34 75
e 34 81
e 34 82
e 34 83
e 34 85
e 34 159
e 34 160
e 34 175
e 34 176
e 34 222
e 34 223
e 34 238
e 34 239
e 35 41
e 35 42
e 35 43
e 35 44
e 35 51
e 35 52
e 35 53
e 35 54
e 35 71
e 35 72
e 35 73
e 35 74
e 35 81
e 35 82
e 35 83
e 35 84
e 35 161
e 35 162
e 35 177
e 35 178
e 35 224
e 35 225
e 35 240
e 35 241
e 36 47
e 36 48
e 36 49
e 36 50
e 36 77
e 36 78
e 36 79
e 36 80
e 36 117
e 36 118
e 36 119
e 36 120
e 36 127
e 36 128
e 36 129
e 36 130
e 36 169
e 36 170
e 36 232
e 36 233
e 36 305
e 36 306
e 36 333
e 36 334
e 37 46
e 37 48
e 37 49
e 37 50
e 37 76
e 37 78
e 37 79
e 37 80
e 37 116
e 37 118
e 37 119
e 37 120
e 37 126
e 37 128
e 37 129
e 37 130
e 37 163
e 37 164
e 37 226
e 37 227
e 37 299
e 37 300
e 37 327
e 37 328
e 38 46
e 38 47
e 38 49
e 38 50
e 38 76
e 38 77
e 38 79
e 38 80
e 38 116
e 38 117
e 38 119
e 38 120
e 38 126
e 38 127
e 38 129
e 38 130
e 38 165
e 38 166
e 38 228
e 38 229
e 38 301
e 38 302
e 38 329
e 38 330
e 39 46
e 39 47
e 39 48
e 39 50
e 39 76
e 39 77
e 39 78
e 39 80
e 39 116
e 39 117
e 39 118
e 39 120
e 39 126
e 39 127
e 39 128
e 39 130
e 39 167
e 39 168
e 39 230
e 39 231
e 39 303
e 39 304
e 39 331
e 39 332
e 40 46
e 40 47
e 40 48
e 40 49
e 40 76
e 40 77
e 40 78
e 40 79
e 40 116
e 40 117
e 40 118
e 40 119
e 40 126
e 40 127
e 40 128
e 40 129
e 40 169
e 40 170
e 40 232
e 40 233
e 40 305
e 40 306
e 40 333
e 40 334
e 41 62
e 41 63
e 41 64
e 41 65
e 41 87
e 41 88
e 41 89
e 41 90
e 41 97
e 41 98
e 41 99
e 41 100
e 41 145
e 41 146
e 41 193
e 41 194
e 41 253
e 41 254
e 41 269
e 41 270
e 42 61
e 42 63
e 42 64
e 42 65
e 42 86
e 42 88
e 42 89
e 42 90
e 42 96
e 42 98
e 42 99
e 42 100
e 42 139
e 42 140
e 42 187
e 42 188
e 42 247
e 42 248
e 42 263
e 42 264
e 43 61
e 43 62
e 43 64
e 43 65
e 43 86
e 43 87
e 43 89
e 43 90
e 43 96
e 43 97
e 43 99
e 43 100
e 43 141
e 43 142
e 43 189
e 43 190
e 43 249
e 43 250
e 43 265
e 43 266
e 44 61
e 44 62
e 44 63
e 44 65
e 44 86
e 44 87
e 44 88
e 44 90
e 44 96
e 44 97
e 44 98
e 44 100
e 44 143
e 44 144
e 44 191
e 44 192
e 44 251
e 44 252
e 44 267
e 44 268
e 45 61
e 45 62
e 45 63
e 45 64
e 45 86
e 45 87
e 45 88
e 45 89
e 45 96
e 45 97
e 45 98
e 45 99
e 45 145
e 45 146
e 45 193
e 45 194
e 45 253
e 45 254
e 45 269
e 45 270
e 46 57
e 46 58
e 46 59
e 46 60
e 46 67
e 46 68
e 46 69
e 46 70
e 46 137
e 46 138
e 46 153
e 46 154
e 46 185
e 46 186
e 46 201
e 46 202
e 47 56
e 47 58
e 47 59
e 47 60
e 47 66
e 47 68
e 47 69
e 47 70
e 47 131
e 47 132
e 47 147
e 47 148
e 47 179
e 47 180
e 47 195
e 47 196
e 48 56
e 48 57
e 48 59
e 48 60
e 48 66
e 48 67
e 48 69
e 48 70
e 48 133
e 48 134
e 48 149
e 48 150
e 48 181
e 48 182
e 48 197
e 48 198
e 49 56
e 49 57
e 49 58
e 49 60
e 49 66
e 49 67
e 49 68
e 49 70
e 49 135
e 49 136
e 49 151
e 49 152
e 49 183
e 49 184
e 49 199
e 49 200
e 50 56
e 50 57
e 50 58
e 50 59
e 50 66
e 50 67
e 50 68
e 50 69
e 50 137
e 50 138
e 50 153
e 50 154
e 50 185
e 50 186
e 50 201
e 50 202
e 51 62
e 51 63
e 51 64
e 51 65
e 51 112
e 51 113
e 51 114
e 51 115
e 51 122
e 51 123
e 51 124
e 51 125
e 51 145
e 51 146
e 51 193
e 51 194
e 51 291
e 51 292
e 51 319
e 51 320
e 52 61
e 52 63
e 52 64
e 52 65
e 52 111
e 52 113
e 52 114
e 52 115
e 52 121
e 52 123
e 52 124
e 52 125
e 52 139
e 52 140
e 52 187
e 52 188
e 52 285
e 52 286
e 52 313
e 52 314
e 53 61
e 53 62
e 53 64
e 53 65
e 53 111
e 53 112
e 53 114
e 53 115
e 53 121
e 53 122
e 53 124
e 53 125
e 53 141
e 53 142
e 53 189
e 53 190
e 53 287
e 53 288
e 53 315
e 53 316
e 54 61
e 54 62
e 54 63
e 54 65
e 54 111
e 54 112
e 54 113
e 54 115
e 54 121
e 54 122
e 54 123
e 54 125
e 54 143
e 54 144
e 54 191
e 54 192
e 54 289
e 54 290
e 54 317
e 54 318
e 55 61
e 55 62
e 55 63
e 55 64
e 55 111
e 55 112
e 55 113
e 55 114
e 55 121
e 55 122
e 55 123
e 55 124
e 55 145
e 55 146
e 55 193
e 55 194
e 55 291
e 55 292
e 55 319
e 55 320
e 56 92
e 56 93
e 56 94
e 56 95
e 56 107
e 56 169
e 56 170
e 56 209
e 56 210
e 56 211
e 56 212
e 56 243
e 56 244
e 56 245
e 56 246
e 56 261
e 56 262
e 56 366
e 56 367
e 56 386
e 56 387
e 57 91
e 57 93
e 57 94
e 57 95
e 57 107
e 57 163
e 57 164
e 57 208
e 57 210
e 57 211
e 57 212
e 57 242
e 57 244
e 57 245
e 57 246
e 57 255
e 57 256
e 57 360
e 57 361
e 57 380
e 57 381
e 58 91
e 58 92
e 58 94
e 58 95
e 58 107
e 58 165
e 58 166
e 58 208
e 58 209
e 58 211
e 58 212
e 58 242
e 58 243
e 58 245
e 58 246
e 58 257
e 58 258
e 58 362
e 58 363
e 58 382
e 58 383
e 59 91
e 59 92
e 59 93
e 59 95
e 59 107
e 59 167
e 59 168
e 59 208
e 59 209
e 59 210
e 59 212
e 59 242
e 59 243
e 59 244
e 59 246
e 59 259
e 59 260
e 59 364
e 59 365
e 59 384
e 59 385
e 60 91
e 60 92
e 60 93
e 60 94
e 60 107
e 60 169
e 60 170
e 60 208
e 60 209
e 60 210
e 60 211
e 60 242
e 60 243
e 60 244
e 60 245
e 60 261
e 60 262
e 60 366
e 60 367
e 60 386
e 60 387
e 61 108
e 61 161
e 61 162
e 61 177
e 61 178
e 61 204
e 61 205
e 61 206
e 61 207
e 61 214
e 61 215
e 61 216
e 61 217
e 61 358
e 61 359
e 61 374
e 61 375
e 62 108
e 62 155
e 62 156
e 62 171
e 62 172
e 62 203
e 62 205
e 62 206
e 62 207
e 62 213
e 62 215
e 62 216
e 62 217
e 62 352
e 62 353
e 62 368
e 62 369
e 63 108
e 63 157
e 63 158
e 63 173
e 63 174
e 63 203
e 63 204
e 63 206
e 63 207
e 63 213
e 63 214
e 63 216
e 63 217
e 63 354
e 63 355
e 63 370
e 63 371
e 64 108
e 64 159
e 64 160
e 64 175
e 64 176
e 64 203
e 64 204
e 64 205
e 64 207
e 64 213
e 64 214
e 64 215
e 64 217
e 64 356
e 64 357
e 64 372
e 64 373
e 65 108
e 65 161
e 65 162
e 65 177
e 65 178
e 65 203
e 65 204
e 65 205
e 65 206
e 65 213
e 65 214
e 65 215
e 65 216
e 65 358
e 65 359
e 65 374
e 65 375
e 66 109
e 66 117
e 66 118
e 66 119
e 66 120
e 66 169
e 66 170
e 66 209
e 66 210
e 66 211
e 66 212
e 66 305
e 66 306
e 66 336
e 66 337
e 66 338
e 66 339
e 66 366
e 66 367
e 66 400
e 66 401
e 67 109
e 67 116
e 67 118
e 67 119
e 67 120
e 67 163
e 67 164
e 67 208
e 67 210
e 67 211
e 67 212
e 67 299
e 67 300
e 67 335
e 67 337
e 67 338
e 67 339
e 67 360
e 67 361
e 67 394
e 67 395
e 68 109
e 68 116
e 68 117
e 68 119
e 68 120
e 68 165
e 68 166
e 68 208
e 68 209
e 68 211
e 68 212
e 68 301
e 68 302
e 68 335
e 68 336
e 68 338
e 68 339
e 68 362
e 68 363
e 68 396
e 68 397
e 69 109
e 69 116
e 69 117
e 69 118
e 69 120
e 69 167
e 69 168
e 69 208
e 69 209
e 69 210
e 69 212
e 69 303
e 69 304
e 69 335
e 69 336
e 69 337
e 69 339
e 69 364
e 69 365
e 69 398
e 69 399
e 70 109
e 70 116
e 70 117
e 70 118
e 70 119
e 70 169
e 70 170
e 70 208
e 70 209
e 70 210
e 70 211
e 70 305
e 70 306
e 70 335
e 70 336
e 70 337
e 70 338
e 70 366
e 70 367
e 70 400
e 70 401
e 71 77
e 71 78
e 71 79
e 71 80
e 71 87
e 71 88
e 71 89
e 71 90
e 71 102
e 71 103
e 71 104
e 71 105
e 71 145
e 71 146
e 71 232
e 71 233
e 71 253
e 71 254
e 71 277
e 71 278
e 72 76
e 72 78
e 72 79
e 72 80
e 72 86
e 72 88
e 72 89
e 72 90
e 72 101
e 72 103
e 72 104
e 72 105
e 72 139
e 72 140
e 72 226
e 72 227
e 72 247
e 72 248
e 72 271
e 72 272
e 73 76
e 73 77
e 73 79
e 73 80
e 73 86
e 73 87
e 73 89
e 73 90
e 73 101
e 73 102
e 73 104
e 73 105
e 73 141
e 73 142
e 73 228
e 73 229
e 73 249
e 73 250
e 73 273
e 73 274
e 74 76
e 74 77
e 74 78
e 74 80
e 74 86
e 74 87
e 74 88
e 74 90
e 74 101
e 74 102
e 74 103
e 74 105
e 74 143
e 74 144
e 74 230
e 74 231
e 74 251
e 74 252
e 74 275
e 74 276
e 75 76
e 75 77
e 75 78
e 75 79
e 75 86
e 75 87
e 75 88
e 75 89
e 75 101
e 75 102
e 75 103
e 75 104
e 75 145
e 75 146
e 75 232
e 75 233
e 75 253
e 75 254
e 75 277
e 75 278
e 76 82
e 76 83
e 76 84
e 76 85
e 76 137
e 76 138
e 76 153
e 76 154
e 76 224
e 76 225
e 76 240
e 76 241
e 77 81
e 77 83
e 77 84
e 77 85
e 77 131
e 77 132
e 77 147
e 77 148
e 77 218
e 77 219
e 77 234
e 77 235
e 78 81
e 78 82
e 78 84
e 78 85
e 78 133
e 78 134
e 78 149
e 78 150
e 78 220
e 78 221
e 78 236
e 78 237
e 79 81
e 79 82
e 79 83
e 79 85
e 79 135
e 79 136
e 79 151
e 79 152
e 79 222
e 79 223
e 79 238
e 79 239
e 80 81
e 80 82
e 80 83
e 80 84
e 80 137
e 80 138
e 80 153
e 80 154
e 80 224
e 80 225
e 80 240
e 80 241
e 81 112
e 81 113
e 81 114
e 81 115
e 81 127
e 81 128
e 81 129
e 81 130
e 81 145
e 81 146
e 81 232
e 81 233
e 81 291
e 81 292
e 81 333
e 81 334
e 82 111
e 82 113
e 82 114
e 82 115
e 82 126
e 82 128
e 82 129
e 82 130
e 82 139
e 82 140
e 82 226
e 82 227
e 82 285
e 82 286
e 82 327
e 82 328
e 83 111
e 83 112
e 83 114
e 83 115
e 83 126
e 83 127
e 83 129
e 83 130
e 83 141
e 83 142
e 83 228
e 83 229
e 83 287
e 83 288
e 83 329
e 83 330
e 84 111
e 84 112
e 84 113
e 84 115
e 84 126
e 84 127
e 84 128
e 84 130
e 84 143
e 84 144
e 84 230
e 84 231
e 84 289
e 84 290
e 84 331
e 84 332
e 85 111
e 85 112
e 85 113
e 85 114
e 85 126
e 85 127
e 85 128
e 85 129
e 85 145
e 85 146
e 85 232
e 85 233
e 85 291
e 85 292
e 85 333
e 85 334
e 86 92
e 86 93
e 86 94
e 86 95
e 86 102
e 86 103
e 86 104
e 86 105
e 86 161
e 86 162
e 86 224
e 86 225
e 86 261
e 86 262
e 86 277
e 86 278
e 87 91
e 87 93
e 87 94
e 87 95
e 87 101
e 87 103
e 87 104
e 87 105
e 87 155
e 87 156
e 87 218
e 87 219
e 87 255
e 87 256
e 87 271
e 87 272
e 88 91
e 88 92
e 88 94
e 88 95
e 88 101
e 88 102
e 88 104
e 88 105
e 88 157
e 88 158
e 88 220
e 88 221
e 88 257
e 88 258
e 88 273
e 88 274
e 89 91
e 89 92
e 89 93
e 89 95
e 89 101
e 89 102
e 89 103
e 89 105
e 89 159
e 89 160
e 89 222
e 89 223
e 89 259
e 89 260
e 89 275
e 89 276
e 90 91
e 90 92
e 90 93
e 90 94
e 90 101
e 90 102
e 90 103
e 90 104
e 90 161
e 90 162
e 90 224
e 90 225
e 90 261
e 90 262
e 90 277
e 90 278
e 91 97
e 91 98
e 91 99
e 91 100
e 91 137
e 91 138
e 91 185
e 91 186
e 91 253
e 91 254
e 91 269
e 91 270
e 92 96
e 92 98
e 92 99
e 92 100
e 92 131
e 92 132
e 92 179
e 92 180
e 92 247
e 92 248
e 92 263
e 92 264
e 93 96
e 93 97
e 93 99
e 93 100
e 93 133
e 93 134
e 93 181
e 93 182
e 93 249
e 93 250
e 93 265
e 93 266
e 94 96
e 94 97
e 94 98
e 94 100
e 94 135
e 94 136
e 94 183
e 94 184
e 94 251
e 94 252
e 94 267
e 94 268
e 95 96
e 95 97
e 95 98
e 95 99
e 95 137
e 95 138
e 95 185
e 95 186
e 95 253
e 95 254
e 95 269
e 95 270
e 96 161
e 96 162
e 96 204
e 96 205
e 96 206
e 96 207
e 96 243
e 96 244
e 96 245
e 96 246
e 96 261
e 96 262
e 96 358
e 96 359
e 96 386
e 96 387
e 97 155
e 97 156
e 97 203
e 97 205
e 97 206
e 97 207
e 97 242
e 97 244
e 97 245
e 97 246
e 97 255
e 97 256
e 97 352
e 97 353
e 97 380
e 97 381
e 98 157
e 98 158
e 98 203
e 98 204
e 98 206
e 98 207
e 98 242
e 98 243
e 98 245
e 98 246
e 98 257
e 98 258
e 98 354
e 98 355
e 98 382
e 98 383
e 99 159
e 99 160
e 99 203
e 99 204
e 99 205
e 99 207
e 99 242
e 99 243
e 99 244
e 99 246
e 99 259
e 99 260
e 99 356
e 99 357
e 99 384
e 99 385
e 100 161
e 100 162
e 100 203
e 100 204
e 100 205
e 100 206
e 100 242
e 100 243
e 100 244
e 100 245
e 100 261
e 100 262
e 100 358
e 100 359
e 100 386
e 100 387
e 101 102
e 101 103
e 101 104
e 101 105
e 101 137
e 101 138
e 101 224
e 101 225
e 101 253
e 101 254
e 101 277
e 101 278
e 102 103
e 102 104
e 102 105
e 102 131
e 102 132
e 102 218
e 102 219
e 102 247
e 102 248
e 102 271
e 102 272
e 103 104
e 103 105
e 103 133
e 103 134
e 103 220
e 103 221
e 103 249
e 103 250
e 103 273
e 103 274
e 104 105
e 104 135
e 104 136
e 104 222
e 104 223
e 104 251
e 104 252
e 104 275
e 104 276
e 105 137
e 105 138
e 105 224
e 105 225
e 105 253
e 105 254
e 105 277
e 105 278
e 106 121
e 106 122
e 106 123
e 106 124
e 106 125
e 106 313
e 106 314
e 106 315
e 106 316
e 106 317
e 106 318
e 106 319
e 106 320
e 106 350
e 106 351
e 107 179
e 107 180
e 107 181
e 107 182
e 107 183
e 107 184
e 107 185
e 107 186
e 107 307
e 107 308
e 108 187
e 108 188
e 108 189
e 108 190
e 108 191
e 108 192
e 108 193
e 108 194
e 108 309
e 108 310
e 109 195
e 109 196
e 109 197
e 109 198
e 109 199
e 109 200
e 109 201
e 109 202
e 109 311
e 109 312
e 110 121
e 110 122
e 110 123
e 110 124
e 110 125
e 110 313
e 110 314
e 110 315
e 110 316
e 110 317
e 110 318
e 110 319
e 110 320
e 110 350
e 110 351
e 111 177
e 111 178
e 111 240
e 111 241
e 112 171
e 112 172
e 112 234
e 112 235
e 113 173
e 113 174
e 113 236
e 113 237
e 114 175
e 114 176
e 114 238
e 114 239
e 115 177
e 115 178
e 115 240
e 115 241
e 116 153
e 116 154
e 116 201
e 116 202
e 117 147
e 117 148
e 117 195
e 117 196
e 118 149
e 118 150
e 118 197
e 118 198
e 119 151
e 119 152
e 119 199
e 119 200
e 120 153
e 120 154
e 120 201
e 120 202
e 121 177
e 121 178
e 121 214
e 121 215
e 121 216
e 121 217
e 121 374
e 121 375
e 122 171
e 122 172
e 122 213
e 122 215
e 122 216
e 122 217
e 122 368
e 122 369
e 123 173
e 123 174
e 123 213
e 123 214
e 123 216
e 123 217
e 123 370
e 123 371
e 124 175
e 124 176
e 124 213
e 124 214
e 124 215
e 124 217
e 124 372
e 124 373
e 125 177
e 125 178
e 125 213
e 125 214
e 125 215
e 125 216
e 125 374
e 125 375
e 126 153
e 126 154
e 126 240
e 126 241
e 127 147
e 127 148
e 127 234
e 127 235
e 128 149
e 128 150
e 128 236
e 128 237
e 129 151
e 129 152
e 129 238
e 129 239
e 130 153
e 130 154
e 130 240
e 130 241
e 131 166
e 131 229
e 131 258
e 131 274
e 131 296
e 131 324
e 131 345
e 131 377
e 132 165
e 132 228
e 132 257
e 132 273
e 132 295
e 132 323
e 132 344
e 132 376
e 133 164
e 133 168
e 133 227
e 133 231
e 133 256
e 133 260
e 133 272
e 133 276
e 134 163
e 134 167
e 134 226
e 134 230
e 134 255
e 134 259
e 134 271
e 134 275
e 135 166
e 135 170
e 135 229
e 135 233
e 135 258
e 135 262
e 135 274
e 135 278
e 136 165
e 136 169
e 136 228
e 136 232
e 136 257
e 136 261
e 136 273
e 136 277
e 137 168
e 137 231
e 137 260
e 137 276
e 138 167
e 138 230
e 138 259
e 138 275
e 139 158
e 139 174
e 139 221
e 139 237
e 139 294
e 139 298
e 139 322
e 139 326
e 140 157
e 140 173
e 140 220
e 140 236
e 140 293
e 140 297
e 140 321
e 140 325
e 141 156
e 141 160
e 141 172
e 141 176
e 141 219
e 141 223
e 141 235
e 141 239
e 142 155
e 142 159
e 142 171
e 142 175
e 142 218
e 142 222
e 142 234
e 142 238
e 143 158
e 143 162
e 143 174
e 143 178
e 143 221
e 143 225
e 143 237
e 143 241
e 144 157
e 144 161
e 144 173
e 144 177
e 144 220
e 144 224
e 144 236
e 144 240
e 145 160
e 145 176
e 145 223
e 145 239
e 146 159
e 146 175
e 146 222
e 146 238
e 147 166
e 147 229
e 147 296
e 147 302
e 147 324
e 147 330
e 147 347
e 147 379
e 148 165
e 148 228
e 148 295
e 148 301
e 148 323
e 148 329
e 148 346
e 148 378
e 149 164
e 149 168
e 149 227
e 149 231
e 149 300
e 149 304
e 149 328
e 149 332
e 150 163
e 150 167
e 150 226
e 150 230
e 150 299
e 150 303
e 150 327
e 150 331
e 151 166
e 151 170
e 151 229
e 151 233
e 151 302
e 151 306
e 151 330
e 151 334
e 152 165
e 152 169
e 152 228
e 152 232
e 152 301
e 152 305
e 152 329
e 152 333
e 153 168
e 153 231
e 153 304
e 153 332
e 154 167
e 154 230
e 154 303
e 154 331
e 155 190
e 155 250
e 155 266
e 155 282
e 155 310
e 155 341
e 155 349
e 156 189
e 156 249
e 156 265
e 156 281
e 156 309
e 156 340
e 156 348
e 157 188
e 157 192
e 157 248
e 157 252
e 157 264
e 157 268
e 158 187
e 158 191
e 158 247
e 158 251
e 158 263
e 158 267
e 159 190
e 159 194
e 159 250
e 159 254
e 159 266
e 159 270
e 160 189
e 160 193
e 160 249
e 160 253
e 160 265
e 160 269
e 161 192
e 161 252
e 161 268
e 162 191
e 162 251
e 162 267
e 163 182
e 163 198
e 163 280
e 163 284
e 163 308
e 163 312
e 164 181
e 164 197
e 164 279
e 164 283
e 164 307
e 164 311
e 165 180
e 165 184
e 165 196
e 165 200
e 166 179
e 166 183
e 166 195
e 166 199
e 167 182
e 167 186
e 167 198
e 167 202
e 168 181
e 168 185
e 168 197
e 168 201
e 169 184
e 169 200
e 170 183
e 170 199
e 171 190
e 171 282
e 171 288
e 171 310
e 171 316
e 171 343
e 171 351
e 172 189
e 172 281
e 172 287
e 172 309
e 172 315
e 172 342
e 172 350
e 173 188
e 173 192
e 173 286
e 173 290
e 173 314
e 173 318
e 174 187
e 174 191
e 174 285
e 174 289
e 174 313
e 174 317
e 175 190
e 175 194
e 175 288
e 175 292
e 175 316
e 175 320
e 176 189
e 176 193
e 176 287
e 176 291
e 176 315
e 176 319
e 177 192
e 177 290
e 177 318
e 178 191
e 178 289
e 178 317
e 179 209
e 179 243
e 179 258
e 179 296
e 179 345
e 179 363
e 179 383
e 179 391
e 179 403
e 180 209
e 180 243
e 180 257
e 180 295
e 180 344
e 180 362
e 180 382
e 180 390
e 180 402
e 181 210
e 181 244
e 181 256
e 181 260
e 181 361
e 181 365
e 181 381
e 181 385
e 182 210
e 182 244
e 182 255
e 182 259
e 182 360
e 182 364
e 182 380
e 182 384
e 183 211
e 183 245
e 183 258
e 183 262
e 183 363
e 183 367
e 183 383
e 183 387
e 184 211
e 184 245
e 184 257
e 184 261
e 184 362
e 184 366
e 184 382
e 184 386
e 185 208
e 185 212
e 185 242
e 185 246
e 185 260
e 185 365
e 185 385
e 186 208
e 186 212
e 186 242
e 186 246
e 186 259
e 186 364
e 186 384
e 187 204
e 187 214
e 187 294
e 187 298
e 187 355
e 187 371
e 187 389
e 187 393
e 188 204
e 188 214
e 188 293
e 188 297
e 188 354
e 188 370
e 188 388
e 188 392
e 189 205
e 189 215
e 189 353
e 189 357
e 189 369
e 189 373
e 190 205
e 190 215
e 190 352
e 190 356
e 190 368
e 190 372
e 191 206
e 191 216
e 191 355
e 191 359
e 191 371
e 191 375
e 192 206
e 192 216
e 192 354
e 192 358
e 192 370
e 192 374
e 193 203
e 193 207
e 193 213
e 193 217
e 193 357
e 193 373
e 194 203
e 194 207
e 194 213
e 194 217
e 194 356
e 194 372
e 195 209
e 195 296
e 195 302
e 195 336
e 195 347
e 195 363
e 195 391
e 195 397
e 195 405
e 196 209
e 196 295
e 196 301
e 196 336
e 196 346
e 196 362
e 196 390
e 196 396
e 196 404
e 197 210
e 197 300
e 197 304
e 197 337
e 197 361
e 197 365
e 197 395
e 197 399
e 198 210
e 198 299
e 198 303
e 198 337
e 198 360
e 198 364
e 198 394
e 198 398
e 199 211
e 199 302
e 199 306
e 199 338
e 199 363
e 199 367
e 199 397
e 199 401
e 200 211
e 200 301
e 200 305
e 200 338
e 200 362
e 200 366
e 200 396
e 200 400
e 201 208
e 201 212
e 201 304
e 201 335
e 201 339
e 201 365
e 201 399
e 202 208
e 202 212
e 202 303
e 202 335
e 202 339
e 202 364
e 202 398
e 203 269
e 203 270
e 204 263
e 204 264
e 205 265
e 205 266
e 206 267
e 206 268
e 207 269
e 207 270
e 213 319
e 213 320
e 214 313
e 214 314
e 215 315
e 215 316
e 216 317
e 216 318
e 217 319
e 217 320
e 218 229
e 218 250
e 218 274
e 218 282
e 218 324
e 218 341
e 218 377
e 219 228
e 219 249
e 219 273
e 219 281
e 219 323
e 219 340
e 219 376
e 220 227
e 220 231
e 220 248
e 220 252
e 220 272
e 220 276
e 221 226
e 221 230
e 221 247
e 221 251
e 221 271
e 221 275
e 222 229
e 222 233
e 222 250
e 222 254
e 222 274
e 222 278
e 223 228
e 223 232
e 223 249
e 223 253
e 223 273
e 223 277
e 224 231
e 224 252
e 224 276
e 225 230
e 225 251
e 225 275
e 226 237
e 226 280
e 226 284
e 226 322
e 226 326
e 227 236
e 227 279
e 227 283
e 227 321
e 227 325
e 228 235
e 228 239
e 229 234
e 229 238
e 230 237
e 230 241
e 231 236
e 231 240
e 232 239
e 233 238
e 234 282
e 234 288
e 234 324
e 234 330
e 234 343
e 234 379
e 235 281
e 235 287
e 235 323
e 235 329
e 235 342
e 235 378
e 236 286
e 236 290
e 236 328
e 236 332
e 237 285
e 237 289
e 237 327
e 237 331
e 238 288
e 238 292
e 238 330
e 238 334
e 239 287
e 239 291
e 239 329
e 239 333
e 240 290
e 240 332
e 241 289
e 241 331
e 242 269
e 242 270
e 243 263
e 243 264
e 244 265
e 244 266
e 245 267
e 245 268
e 246 269
e 246 270
e 247 258
e 247 274
e 247 294
e 247 322
e 247 345
e 247 377
e 248 257
e 248 273
e 248 293
e 248 321
e 248 344
e 248 376
e 249 256
e 249 260
e 249 272
e 249 276
e 250 255
e 250 259
e 250 271
e 250 275
e 251 258
e 251 262
e 251 274
e 251 278
e 252 257
e 252 261
e 252 273
e 252 277
e 253 260
e 253 276
e 254 259
e 254 275
e 255 266
e 255 280
e 255 308
e 255 341
e 255 349
e 256 265
e 256 279
e 256 307
e 256 340
e 256 348
e 257 264
e 257 268
e 258 263
e 258 267
e 259 266
e 259 270
e 260 265
e 260 269
e 261 268
e 262 267
e 263 294
e 263 345
e 263 355
e 263 383
e 263 389
e 263 403
e 264 293
e 264 344
e 264 354
e 264 382
e 264 388
e 264 402
e 265 353
e 265 357
e 265 381
e 265 385
e 266 352
e 266 356
e 266 380
e 266 384
e 267 355
e 267 359
e 267 383
e 267 387
e 268 354
e 268 358
e 268 382
e 268 386
e 269 357
e 269 385
e 270 356
e 270 384
e 271 274
e 271 280
e 271 322
e 271 341
e 271 377
e 272 273
e 272 279
e 272 321
e 272 340
e 272 376
e 273 276
e 274 275
e 275 278
e 276 277
e 279 296
e 279 324
e 279 345
e 279 377
e 280 295
e 280 323
e 280 344
e 280 376
e 281 294
e 281 298
e 281 322
e 281 326
e 282 293
e 282 297
e 282 321
e 282 325
e 283 296
e 283 300
e 283 324
e 283 328
e 283 347
e 283 379
e 284 295
e 284 299
e 284 323
e 284 327
e 284 346
e 284 378
e 285 298
e 285 326
e 286 297
e 286 325
e 293 310
e 293 341
e 293 349
e 294 309
e 294 340
e 294 348
e 295 308
e 295 312
e 296 307
e 296 311
e 297 310
e 297 314
e 297 343
e 297 351
e 298 309
e 298 313
e 298 342
e 298 350
e 299 312
e 300 311
e 307 345
e 307 361
e 307 381
e 307 391
e 307 403
e 308 344
e 308 360
e 308 380
e 308 390
e 308 402
e 309 353
e 309 369
e 309 389
e 309 393
e 310 352
e 310 368
e 310 388
e 310 392
e 311 347
e 311 361
e 311 391
e 311 395
e 311 405
e 312 346
e 312 360
e 312 390
e 312 394
e 312 404
e 313 371
e 313 393
e 314 370
e 314 392
e 315 369
e 315 373
e 316 368
e 316 372
e 317 371
e 317 375
e 318 370
e 318 374
e 319 373
e 320 372
e 321 324
e 321 341
e 321 377
e 322 323
e 322 340
e 322 376
e 323 326
e 324 325
e 325 328
e 325 343
e 325 379
e 326 327
e 326 342
e 326 378
e 340 345
e 340 377
e 341 344
e 341 376
e 344 349
e 345 348
e 348 353
e 348 381
e 348 389
e 348 403
e 349 352
e 349 380
e 349 388
e 349 402
e 350 369
e 350 393
e 351 368
e 351 392
e 376 377
